minimize
obj: 1 x_1_ + 1 x_2_
subject to
c1_1: 1 t_1,1_ - 1 y_1,1_ <= 0
c2_1: 1 t_1,2_ - 1 y_1,1_ - 1 y_1,2_ <= 0
c3_1: 1 t_1,3_ - 1 y_1,2_ - 1 y_1,3_ <= 0
c4_1: 1 t_1,4_ - 1 y_1,3_ - 1 y_1,4_ <= 0
c5_1: 1 t_1,5_ - 1 y_1,4_ - 1 y_1,5_ <= 0
c6_1: 1 t_1,6_ - 1 y_1,5_ - 1 y_1,6_ <= 0
c7: 1 t_1,7_ - 1 y_1,6_ - 1 y_1,7_ <= 0
c8: 1 t_1,8_ - 1 y_1,7_ - 1 y_1,8_ <= 0
c9: 1 t_1,9_ - 1 y_1,8_ - 1 y_1,9_ <= 0
c10: 1 t_1,10_ - 1 y_1,9_ - 1 y_1,10_ <= 0
c11: 1 t_1,11_ - 1 y_1,10_ - 1 y_1,11_ <= 0
c12: 1 t_1,12_ - 1 y_1,11_ - 1 y_1,12_ <= 0
c13: 1 t_1,13_ - 1 y_1,12_ - 1 y_1,13_ <= 0
c14: 1 t_1,14_ - 1 y_1,13_ - 1 y_1,14_ <= 0
c15: 1 t_1,15_ - 1 y_1,14_ - 1 y_1,15_ <= 0
c16: 1 t_1,16_ - 1 y_1,15_ - 1 y_1,16_ <= 0
c17: 1 t_1,17_ - 1 y_1,16_ - 1 y_1,17_ <= 0
c18: 1 t_1,18_ - 1 y_1,17_ - 1 y_1,18_ <= 0
c19: 1 t_1,19_ - 1 y_1,18_ - 1 y_1,19_ <= 0
c20: 1 t_1,20_ - 1 y_1,19_ - 1 y_1,20_ <= 0
c21: 1 t_1,21_ - 1 y_1,20_ - 1 y_1,21_ <= 0
c22: 1 t_1,22_ - 1 y_1,21_ - 1 y_1,22_ <= 0
c23: 1 t_1,23_ - 1 y_1,22_ - 1 y_1,23_ <= 0
c24: 1 t_1,24_ - 1 y_1,23_ - 1 y_1,24_ <= 0
c25: 1 t_1,25_ - 1 y_1,24_ - 1 y_1,25_ <= 0
c26: 1 t_1,26_ - 1 y_1,25_ - 1 y_1,26_ <= 0
c27: 1 t_1,27_ - 1 y_1,26_ - 1 y_1,27_ <= 0
c28: 1 t_1,28_ - 1 y_1,27_ - 1 y_1,28_ <= 0
c29: 1 t_1,29_ - 1 y_1,28_ - 1 y_1,29_ <= 0
c30: 1 t_1,30_ - 1 y_1,29_ - 1 y_1,30_ <= 0
c31: 1 t_1,31_ - 1 y_1,30_ - 1 y_1,31_ <= 0
c32: 1 t_1,32_ - 1 y_1,31_ - 1 y_1,32_ <= 0
c33: 1 t_1,33_ - 1 y_1,32_ - 1 y_1,33_ <= 0
c34: 1 t_1,34_ - 1 y_1,33_ - 1 y_1,34_ <= 0
c35: 1 t_1,35_ - 1 y_1,34_ - 1 y_1,35_ <= 0
c36: 1 t_1,36_ - 1 y_1,35_ - 1 y_1,36_ <= 0
c37: 1 t_1,37_ - 1 y_1,36_ - 1 y_1,37_ <= 0
c38: 1 t_1,38_ - 1 y_1,37_ - 1 y_1,38_ <= 0
c39: 1 t_1,39_ - 1 y_1,38_ - 1 y_1,39_ <= 0
c40: 1 t_1,40_ - 1 y_1,39_ - 1 y_1,40_ <= 0
c41: 1 t_1,41_ - 1 y_1,40_ - 1 y_1,41_ <= 0
c42: 1 t_1,42_ - 1 y_1,41_ - 1 y_1,42_ <= 0
c43: 1 t_1,43_ - 1 y_1,42_ - 1 y_1,43_ <= 0
c44: 1 t_1,44_ - 1 y_1,43_ - 1 y_1,44_ <= 0
c45: 1 t_1,45_ - 1 y_1,44_ - 1 y_1,45_ <= 0
c46: 1 t_1,46_ - 1 y_1,45_ - 1 y_1,46_ <= 0
c47: 1 t_1,47_ - 1 y_1,46_ - 1 y_1,47_ <= 0
c48: 1 t_1,48_ - 1 y_1,47_ - 1 y_1,48_ <= 0
c49: 1 t_1,49_ - 1 y_1,48_ - 1 y_1,49_ <= 0
c50: 1 t_1,50_ - 1 y_1,49_ - 1 y_1,50_ <= 0
c51: 1 t_1,51_ - 1 y_1,50_ - 1 y_1,51_ <= 0
c52: 1 t_1,52_ - 1 y_1,51_ - 1 y_1,52_ <= 0
c53: 1 t_1,53_ - 1 y_1,52_ - 1 y_1,53_ <= 0
c54: 1 t_1,54_ - 1 y_1,53_ - 1 y_1,54_ <= 0
c55: 1 t_1,55_ - 1 y_1,54_ - 1 y_1,55_ <= 0
c56: 1 t_1,56_ - 1 y_1,55_ - 1 y_1,56_ <= 0
c57: 1 t_1,57_ - 1 y_1,56_ - 1 y_1,57_ <= 0
c58: 1 t_1,58_ - 1 y_1,57_ - 1 y_1,58_ <= 0
c59: 1 t_1,59_ - 1 y_1,58_ - 1 y_1,59_ <= 0
c60: 1 t_1,60_ - 1 y_1,59_ - 1 y_1,60_ <= 0
c61: 1 t_1,61_ - 1 y_1,60_ - 1 y_1,61_ <= 0
c62: 1 t_1,62_ - 1 y_1,61_ - 1 y_1,62_ <= 0
c63: 1 t_1,63_ - 1 y_1,62_ - 1 y_1,63_ <= 0
c64: 1 t_1,64_ - 1 y_1,63_ - 1 y_1,64_ <= 0
c65: 1 t_1,65_ - 1 y_1,64_ - 1 y_1,65_ <= 0
c66: 1 t_1,66_ - 1 y_1,65_ - 1 y_1,66_ <= 0
c67: 1 t_1,67_ - 1 y_1,66_ - 1 y_1,67_ <= 0
c68: 1 t_1,68_ - 1 y_1,67_ - 1 y_1,68_ <= 0
c69: 1 t_1,69_ - 1 y_1,68_ - 1 y_1,69_ <= 0
c70: 1 t_1,70_ - 1 y_1,69_ <= 0
c71: 1 t_2,1_ - 1 y_2,1_ <= 0
c72: 1 t_2,2_ - 1 y_2,1_ - 1 y_2,2_ <= 0
c73: 1 t_2,3_ - 1 y_2,2_ - 1 y_2,3_ <= 0
c74: 1 t_2,4_ - 1 y_2,3_ - 1 y_2,4_ <= 0
c75: 1 t_2,5_ - 1 y_2,4_ - 1 y_2,5_ <= 0
c76: 1 t_2,6_ - 1 y_2,5_ - 1 y_2,6_ <= 0
c77: 1 t_2,7_ - 1 y_2,6_ - 1 y_2,7_ <= 0
c78: 1 t_2,8_ - 1 y_2,7_ - 1 y_2,8_ <= 0
c79: 1 t_2,9_ - 1 y_2,8_ - 1 y_2,9_ <= 0
c80: 1 t_2,10_ - 1 y_2,9_ - 1 y_2,10_ <= 0
c81: 1 t_2,11_ - 1 y_2,10_ - 1 y_2,11_ <= 0
c82: 1 t_2,12_ - 1 y_2,11_ - 1 y_2,12_ <= 0
c83: 1 t_2,13_ - 1 y_2,12_ - 1 y_2,13_ <= 0
c84: 1 t_2,14_ - 1 y_2,13_ - 1 y_2,14_ <= 0
c85: 1 t_2,15_ - 1 y_2,14_ - 1 y_2,15_ <= 0
c86: 1 t_2,16_ - 1 y_2,15_ - 1 y_2,16_ <= 0
c87: 1 t_2,17_ - 1 y_2,16_ - 1 y_2,17_ <= 0
c88: 1 t_2,18_ - 1 y_2,17_ - 1 y_2,18_ <= 0
c89: 1 t_2,19_ - 1 y_2,18_ - 1 y_2,19_ <= 0
c90: 1 t_2,20_ - 1 y_2,19_ - 1 y_2,20_ <= 0
c91: 1 t_2,21_ - 1 y_2,20_ - 1 y_2,21_ <= 0
c92: 1 t_2,22_ - 1 y_2,21_ - 1 y_2,22_ <= 0
c93: 1 t_2,23_ - 1 y_2,22_ - 1 y_2,23_ <= 0
c94: 1 t_2,24_ - 1 y_2,23_ - 1 y_2,24_ <= 0
c95: 1 t_2,25_ - 1 y_2,24_ - 1 y_2,25_ <= 0
c96: 1 t_2,26_ - 1 y_2,25_ - 1 y_2,26_ <= 0
c97: 1 t_2,27_ - 1 y_2,26_ - 1 y_2,27_ <= 0
c98: 1 t_2,28_ - 1 y_2,27_ - 1 y_2,28_ <= 0
c99: 1 t_2,29_ - 1 y_2,28_ - 1 y_2,29_ <= 0
c100: 1 t_2,30_ - 1 y_2,29_ - 1 y_2,30_ <= 0
c101: 1 t_2,31_ - 1 y_2,30_ - 1 y_2,31_ <= 0
c102: 1 t_2,32_ - 1 y_2,31_ - 1 y_2,32_ <= 0
c103: 1 t_2,33_ - 1 y_2,32_ - 1 y_2,33_ <= 0
c104: 1 t_2,34_ - 1 y_2,33_ - 1 y_2,34_ <= 0
c105: 1 t_2,35_ - 1 y_2,34_ - 1 y_2,35_ <= 0
c106: 1 t_2,36_ - 1 y_2,35_ - 1 y_2,36_ <= 0
c107: 1 t_2,37_ - 1 y_2,36_ - 1 y_2,37_ <= 0
c108: 1 t_2,38_ - 1 y_2,37_ - 1 y_2,38_ <= 0
c109: 1 t_2,39_ - 1 y_2,38_ - 1 y_2,39_ <= 0
c110: 1 t_2,40_ - 1 y_2,39_ - 1 y_2,40_ <= 0
c111: 1 t_2,41_ - 1 y_2,40_ - 1 y_2,41_ <= 0
c112: 1 t_2,42_ - 1 y_2,41_ - 1 y_2,42_ <= 0
c113: 1 t_2,43_ - 1 y_2,42_ - 1 y_2,43_ <= 0
c114: 1 t_2,44_ - 1 y_2,43_ - 1 y_2,44_ <= 0
c115: 1 t_2,45_ - 1 y_2,44_ - 1 y_2,45_ <= 0
c116: 1 t_2,46_ - 1 y_2,45_ - 1 y_2,46_ <= 0
c117: 1 t_2,47_ - 1 y_2,46_ - 1 y_2,47_ <= 0
c118: 1 t_2,48_ - 1 y_2,47_ - 1 y_2,48_ <= 0
c119: 1 t_2,49_ - 1 y_2,48_ - 1 y_2,49_ <= 0
c120: 1 t_2,50_ - 1 y_2,49_ - 1 y_2,50_ <= 0
c121: 1 t_2,51_ - 1 y_2,50_ - 1 y_2,51_ <= 0
c122: 1 t_2,52_ - 1 y_2,51_ - 1 y_2,52_ <= 0
c123: 1 t_2,53_ - 1 y_2,52_ - 1 y_2,53_ <= 0
c124: 1 t_2,54_ - 1 y_2,53_ - 1 y_2,54_ <= 0
c125: 1 t_2,55_ - 1 y_2,54_ - 1 y_2,55_ <= 0
c126: 1 t_2,56_ - 1 y_2,55_ - 1 y_2,56_ <= 0
c127: 1 t_2,57_ - 1 y_2,56_ - 1 y_2,57_ <= 0
c128: 1 t_2,58_ - 1 y_2,57_ - 1 y_2,58_ <= 0
c129: 1 t_2,59_ - 1 y_2,58_ - 1 y_2,59_ <= 0
c130: 1 t_2,60_ - 1 y_2,59_ - 1 y_2,60_ <= 0
c131: 1 t_2,61_ - 1 y_2,60_ - 1 y_2,61_ <= 0
c132: 1 t_2,62_ - 1 y_2,61_ - 1 y_2,62_ <= 0
c133: 1 t_2,63_ - 1 y_2,62_ - 1 y_2,63_ <= 0
c134: 1 t_2,64_ - 1 y_2,63_ - 1 y_2,64_ <= 0
c135: 1 t_2,65_ - 1 y_2,64_ - 1 y_2,65_ <= 0
c136: 1 t_2,66_ - 1 y_2,65_ - 1 y_2,66_ <= 0
c137: 1 t_2,67_ - 1 y_2,66_ - 1 y_2,67_ <= 0
c138: 1 t_2,68_ - 1 y_2,67_ - 1 y_2,68_ <= 0
c139: 1 t_2,69_ - 1 y_2,68_ - 1 y_2,69_ <= 0
c140: 1 t_2,70_ - 1 y_2,69_ <= 0
c141: 4 t_1,1_ + 4 t_2,1_ + 3.7714765805503054 t_1,2_ + 3.7714765805503054 t_2,2_ + 3.549674438143247 t_1,3_ + 3.549674438143247 t_2,3_ + 3.3345935727788283 t_1,4_ + 3.3345935727788283 t_2,4_ + 3.126233984457046 t_1,5_ + 3.126233984457046 t_2,5_ + 2.924595673177904 t_1,6_ + 2.924595673177904 t_2,6_ + 2.7296786389413996 t_1,7_ + 2.7296786389413996 t_2,7_ + 2.541482881747532 t_1,8_ + 2.541482881747532 t_2,8_ + 2.360008401596304 t_1,9_ + 2.360008401596304 t_2,9_ + 2.185255198487712 t_1,10_ + 2.185255198487712 t_2,10_ + 2.0172232724217602 t_1,11_ + 2.0172232724217602 t_2,11_ + 1.8559126233984453 t_1,12_ + 1.8559126233984453 t_2,12_ + 1.7013232514177694 t_1,13_ + 1.7013232514177694 t_2,13_ + 1.5534551564797316 t_1,14_ + 1.5534551564797316 t_2,14_ + 1.412308338584331 t_1,15_ + 1.412308338584331 t_2,15_ + 1.2778827977315692 t_1,16_ + 1.2778827977315692 t_2,16_ + 1.1501785339214448 t_1,17_ + 1.1501785339214448 t_2,17_ + 1.0291955471539593 t_1,18_ + 1.0291955471539593 t_2,18_ + 0.9149338374291114 t_1,19_ + 0.9149338374291114 t_2,19_ + 0.8073934047469019 t_1,20_ + 0.8073934047469019 t_2,20_ + 0.7065742491073305 t_1,21_ + 0.7065742491073305 t_2,21_ + 0.6124763705103968 t_1,22_ + 0.6124763705103968 t_2,22_ + 0.5250997689561018 t_1,23_ + 0.5250997689561018 t_2,23_ + 0.4444444444444447 t_1,24_ + 0.4444444444444447 t_2,24_ + 0.37051039697542537 t_1,25_ + 0.37051039697542537 t_2,25_ + 0.3032976265490442 t_1,26_ + 0.3032976265490442 t_2,26_ + 0.24280613316530136 t_1,27_ + 0.24280613316530136 t_2,27_ + 0.18903591682419663 t_1,28_ + 0.18903591682419663 t_2,28_ + 0.1419869775257298 t_1,29_ + 0.1419869775257298 t_2,29_ + 0.10165931526990134 t_1,30_ + 0.10165931526990134 t_2,30_ + 0.06805293005671086 t_1,31_ + 0.06805293005671086 t_2,31_ + 0.041167821886158376 t_1,32_ + 0.041167821886158376 t_2,32_ + 0.021003990758244027 t_1,33_ + 0.021003990758244027 t_2,33_ + 0.007561436672967854 t_1,34_ + 0.007561436672967854 t_2,34_ + 0.0008401596303297637 t_1,35_ + 0.0008401596303297637 t_2,35_ + 0.0008401596303297701 t_1,36_ + 0.0008401596303297701 t_2,36_ + 0.007561436672967854 t_1,37_ + 0.007561436672967854 t_2,37_ + 0.021003990758244124 t_1,38_ + 0.021003990758244124 t_2,38_ + 0.041167821886158376 t_1,39_ + 0.041167821886158376 t_2,39_ + 0.06805293005671069 t_1,40_ + 0.06805293005671069 t_2,40_ + 0.10165931526990134 t_1,41_ + 0.10165931526990134 t_2,41_ + 0.1419869775257298 t_1,42_ + 0.1419869775257298 t_2,42_ + 0.18903591682419674 t_1,43_ + 0.18903591682419674 t_2,43_ + 0.24280613316530136 t_1,44_ + 0.24280613316530136 t_2,44_ + 0.3032976265490441 t_1,45_ + 0.3032976265490441 t_2,45_ + 0.37051039697542537 t_1,46_ + 0.37051039697542537 t_2,46_ + 0.44444444444444425 t_1,47_ + 0.44444444444444425 t_2,47_ + 0.5250997689561018 t_1,48_ + 0.5250997689561018 t_2,48_ + 0.6124763705103968 t_1,49_ + 0.6124763705103968 t_2,49_ + 0.7065742491073307 t_1,50_ + 0.7065742491073307 t_2,50_ + 0.8073934047469019 t_1,51_ + 0.8073934047469019 t_2,51_ + 0.9149338374291112 t_1,52_ + 0.9149338374291112 t_2,52_ + 1.0291955471539593 t_1,53_ + 1.0291955471539593 t_2,53_ + 1.1501785339214448 t_1,54_ + 1.1501785339214448 t_2,54_ + 1.2778827977315692 t_1,55_ + 1.2778827977315692 t_2,55_ + 1.412308338584331 t_1,56_ + 1.412308338584331 t_2,56_ + 1.5534551564797316 t_1,57_ + 1.5534551564797316 t_2,57_ + 1.7013232514177694 t_1,58_ + 1.7013232514177694 t_2,58_ + 1.8559126233984453 t_1,59_ + 1.8559126233984453 t_2,59_ + 2.0172232724217602 t_1,60_ + 2.0172232724217602 t_2,60_ + 2.185255198487712 t_1,61_ + 2.185255198487712 t_2,61_ + 2.360008401596304 t_1,62_ + 2.360008401596304 t_2,62_ + 2.541482881747532 t_1,63_ + 2.541482881747532 t_2,63_ + 2.7296786389413983 t_1,64_ + 2.7296786389413983 t_2,64_ + 2.924595673177904 t_1,65_ + 2.924595673177904 t_2,65_ + 3.126233984457046 t_1,66_ + 3.126233984457046 t_2,66_ + 3.3345935727788283 t_1,67_ + 3.3345935727788283 t_2,67_ + 3.549674438143247 t_1,68_ + 3.549674438143247 t_2,68_ + 3.7714765805503054 t_1,69_ + 3.7714765805503054 t_2,69_ + 4 t_1,70_ + 4 t_2,70_ <= 1
c1: 1 y_1,1_ + 1 y_1,2_ + 1 y_1,3_ + 1 y_1,4_ + 1 y_1,5_ + 1 y_1,6_ + 1 y_1,7_ + 1 y_1,8_ + 1 y_1,9_ + 1 y_1,10_ + 1 y_1,11_ + 1 y_1,12_ + 1 y_1,13_ + 1 y_1,14_ + 1 y_1,15_ + 1 y_1,16_ + 1 y_1,17_ + 1 y_1,18_ + 1 y_1,19_ + 1 y_1,20_ + 1 y_1,21_ + 1 y_1,22_ + 1 y_1,23_ + 1 y_1,24_ + 1 y_1,25_ + 1 y_1,26_ + 1 y_1,27_ + 1 y_1,28_ + 1 y_1,29_ + 1 y_1,30_ + 1 y_1,31_ + 1 y_1,32_ + 1 y_1,33_ + 1 y_1,34_ + 1 y_1,35_ + 1 y_1,36_ + 1 y_1,37_ + 1 y_1,38_ + 1 y_1,39_ + 1 y_1,40_ + 1 y_1,41_ + 1 y_1,42_ + 1 y_1,43_ + 1 y_1,44_ + 1 y_1,45_ + 1 y_1,46_ + 1 y_1,47_ + 1 y_1,48_ + 1 y_1,49_ + 1 y_1,50_ + 1 y_1,51_ + 1 y_1,52_ + 1 y_1,53_ + 1 y_1,54_ + 1 y_1,55_ + 1 y_1,56_ + 1 y_1,57_ + 1 y_1,58_ + 1 y_1,59_ + 1 y_1,60_ + 1 y_1,61_ + 1 y_1,62_ + 1 y_1,63_ + 1 y_1,64_ + 1 y_1,65_ + 1 y_1,66_ + 1 y_1,67_ + 1 y_1,68_ + 1 y_1,69_ = 1
c2: 1 t_1,1_ + 1 t_1,2_ + 1 t_1,3_ + 1 t_1,4_ + 1 t_1,5_ + 1 t_1,6_ + 1 t_1,7_ + 1 t_1,8_ + 1 t_1,9_ + 1 t_1,10_ + 1 t_1,11_ + 1 t_1,12_ + 1 t_1,13_ + 1 t_1,14_ + 1 t_1,15_ + 1 t_1,16_ + 1 t_1,17_ + 1 t_1,18_ + 1 t_1,19_ + 1 t_1,20_ + 1 t_1,21_ + 1 t_1,22_ + 1 t_1,23_ + 1 t_1,24_ + 1 t_1,25_ + 1 t_1,26_ + 1 t_1,27_ + 1 t_1,28_ + 1 t_1,29_ + 1 t_1,30_ + 1 t_1,31_ + 1 t_1,32_ + 1 t_1,33_ + 1 t_1,34_ + 1 t_1,35_ + 1 t_1,36_ + 1 t_1,37_ + 1 t_1,38_ + 1 t_1,39_ + 1 t_1,40_ + 1 t_1,41_ + 1 t_1,42_ + 1 t_1,43_ + 1 t_1,44_ + 1 t_1,45_ + 1 t_1,46_ + 1 t_1,47_ + 1 t_1,48_ + 1 t_1,49_ + 1 t_1,50_ + 1 t_1,51_ + 1 t_1,52_ + 1 t_1,53_ + 1 t_1,54_ + 1 t_1,55_ + 1 t_1,56_ + 1 t_1,57_ + 1 t_1,58_ + 1 t_1,59_ + 1 t_1,60_ + 1 t_1,61_ + 1 t_1,62_ + 1 t_1,63_ + 1 t_1,64_ + 1 t_1,65_ + 1 t_1,66_ + 1 t_1,67_ + 1 t_1,68_ + 1 t_1,69_ + 1 t_1,70_ = 1
c3: -2 t_1,1_ - 1.9420289855072466 t_1,2_ - 1.8840579710144927 t_1,3_ - 1.8260869565217392 t_1,4_ - 1.7681159420289854 t_1,5_ - 1.710144927536232 t_1,6_ - 1.6521739130434785 t_1,7_ - 1.5942028985507246 t_1,8_ - 1.5362318840579712 t_1,9_ - 1.4782608695652173 t_1,10_ - 1.4202898550724639 t_1,11_ - 1.36231884057971 t_1,12_ - 1.3043478260869565 t_1,13_ - 1.246376811594203 t_1,14_ - 1.1884057971014492 t_1,15_ - 1.1304347826086958 t_1,16_ - 1.072463768115942 t_1,17_ - 1.0144927536231885 t_1,18_ - 0.9565217391304347 t_1,19_ - 0.8985507246376812 t_1,20_ - 0.8405797101449276 t_1,21_ - 0.7826086956521738 t_1,22_ - 0.7246376811594204 t_1,23_ - 0.6666666666666669 t_1,24_ - 0.6086956521739131 t_1,25_ - 0.5507246376811593 t_1,26_ - 0.49275362318840576 t_1,27_ - 0.4347826086956522 t_1,28_ - 0.37681159420289845 t_1,29_ - 0.318840579710145 t_1,30_ - 0.26086956521739146 t_1,31_ - 0.2028985507246377 t_1,32_ - 0.14492753623188392 t_1,33_ - 0.08695652173913038 t_1,34_ - 0.02898550724637683 t_1,35_ + 0.02898550724637694 t_1,36_ + 0.08695652173913038 t_1,37_ + 0.14492753623188426 t_1,38_ + 0.2028985507246377 t_1,39_ + 0.26086956521739113 t_1,40_ + 0.318840579710145 t_1,41_ + 0.37681159420289845 t_1,42_ + 0.43478260869565233 t_1,43_ + 0.49275362318840576 t_1,44_ + 0.5507246376811592 t_1,45_ + 0.6086956521739131 t_1,46_ + 0.6666666666666665 t_1,47_ + 0.7246376811594204 t_1,48_ + 0.7826086956521738 t_1,49_ + 0.8405797101449277 t_1,50_ + 0.8985507246376812 t_1,51_ + 0.9565217391304346 t_1,52_ + 1.0144927536231885 t_1,53_ + 1.072463768115942 t_1,54_ + 1.1304347826086958 t_1,55_ + 1.1884057971014492 t_1,56_ + 1.246376811594203 t_1,57_ + 1.3043478260869565 t_1,58_ + 1.36231884057971 t_1,59_ + 1.4202898550724639 t_1,60_ + 1.4782608695652173 t_1,61_ + 1.5362318840579712 t_1,62_ + 1.5942028985507246 t_1,63_ + 1.652173913043478 t_1,64_ + 1.710144927536232 t_1,65_ + 1.7681159420289854 t_1,66_ + 1.8260869565217392 t_1,67_ + 1.8840579710144927 t_1,68_ + 1.9420289855072466 t_1,69_ + 2 t_1,70_ - 1 x_1_ = 0
c4: 1 y_2,1_ + 1 y_2,2_ + 1 y_2,3_ + 1 y_2,4_ + 1 y_2,5_ + 1 y_2,6_ + 1 y_2,7_ + 1 y_2,8_ + 1 y_2,9_ + 1 y_2,10_ + 1 y_2,11_ + 1 y_2,12_ + 1 y_2,13_ + 1 y_2,14_ + 1 y_2,15_ + 1 y_2,16_ + 1 y_2,17_ + 1 y_2,18_ + 1 y_2,19_ + 1 y_2,20_ + 1 y_2,21_ + 1 y_2,22_ + 1 y_2,23_ + 1 y_2,24_ + 1 y_2,25_ + 1 y_2,26_ + 1 y_2,27_ + 1 y_2,28_ + 1 y_2,29_ + 1 y_2,30_ + 1 y_2,31_ + 1 y_2,32_ + 1 y_2,33_ + 1 y_2,34_ + 1 y_2,35_ + 1 y_2,36_ + 1 y_2,37_ + 1 y_2,38_ + 1 y_2,39_ + 1 y_2,40_ + 1 y_2,41_ + 1 y_2,42_ + 1 y_2,43_ + 1 y_2,44_ + 1 y_2,45_ + 1 y_2,46_ + 1 y_2,47_ + 1 y_2,48_ + 1 y_2,49_ + 1 y_2,50_ + 1 y_2,51_ + 1 y_2,52_ + 1 y_2,53_ + 1 y_2,54_ + 1 y_2,55_ + 1 y_2,56_ + 1 y_2,57_ + 1 y_2,58_ + 1 y_2,59_ + 1 y_2,60_ + 1 y_2,61_ + 1 y_2,62_ + 1 y_2,63_ + 1 y_2,64_ + 1 y_2,65_ + 1 y_2,66_ + 1 y_2,67_ + 1 y_2,68_ + 1 y_2,69_ = 1
c5: 1 t_2,1_ + 1 t_2,2_ + 1 t_2,3_ + 1 t_2,4_ + 1 t_2,5_ + 1 t_2,6_ + 1 t_2,7_ + 1 t_2,8_ + 1 t_2,9_ + 1 t_2,10_ + 1 t_2,11_ + 1 t_2,12_ + 1 t_2,13_ + 1 t_2,14_ + 1 t_2,15_ + 1 t_2,16_ + 1 t_2,17_ + 1 t_2,18_ + 1 t_2,19_ + 1 t_2,20_ + 1 t_2,21_ + 1 t_2,22_ + 1 t_2,23_ + 1 t_2,24_ + 1 t_2,25_ + 1 t_2,26_ + 1 t_2,27_ + 1 t_2,28_ + 1 t_2,29_ + 1 t_2,30_ + 1 t_2,31_ + 1 t_2,32_ + 1 t_2,33_ + 1 t_2,34_ + 1 t_2,35_ + 1 t_2,36_ + 1 t_2,37_ + 1 t_2,38_ + 1 t_2,39_ + 1 t_2,40_ + 1 t_2,41_ + 1 t_2,42_ + 1 t_2,43_ + 1 t_2,44_ + 1 t_2,45_ + 1 t_2,46_ + 1 t_2,47_ + 1 t_2,48_ + 1 t_2,49_ + 1 t_2,50_ + 1 t_2,51_ + 1 t_2,52_ + 1 t_2,53_ + 1 t_2,54_ + 1 t_2,55_ + 1 t_2,56_ + 1 t_2,57_ + 1 t_2,58_ + 1 t_2,59_ + 1 t_2,60_ + 1 t_2,61_ + 1 t_2,62_ + 1 t_2,63_ + 1 t_2,64_ + 1 t_2,65_ + 1 t_2,66_ + 1 t_2,67_ + 1 t_2,68_ + 1 t_2,69_ + 1 t_2,70_ = 1
c6: -2 t_2,1_ - 1.9420289855072466 t_2,2_ - 1.8840579710144927 t_2,3_ - 1.8260869565217392 t_2,4_ - 1.7681159420289854 t_2,5_ - 1.710144927536232 t_2,6_ - 1.6521739130434785 t_2,7_ - 1.5942028985507246 t_2,8_ - 1.5362318840579712 t_2,9_ - 1.4782608695652173 t_2,10_ - 1.4202898550724639 t_2,11_ - 1.36231884057971 t_2,12_ - 1.3043478260869565 t_2,13_ - 1.246376811594203 t_2,14_ - 1.1884057971014492 t_2,15_ - 1.1304347826086958 t_2,16_ - 1.072463768115942 t_2,17_ - 1.0144927536231885 t_2,18_ - 0.9565217391304347 t_2,19_ - 0.8985507246376812 t_2,20_ - 0.8405797101449276 t_2,21_ - 0.7826086956521738 t_2,22_ - 0.7246376811594204 t_2,23_ - 0.6666666666666669 t_2,24_ - 0.6086956521739131 t_2,25_ - 0.5507246376811593 t_2,26_ - 0.49275362318840576 t_2,27_ - 0.4347826086956522 t_2,28_ - 0.37681159420289845 t_2,29_ - 0.318840579710145 t_2,30_ - 0.26086956521739146 t_2,31_ - 0.2028985507246377 t_2,32_ - 0.14492753623188392 t_2,33_ - 0.08695652173913038 t_2,34_ - 0.02898550724637683 t_2,35_ + 0.02898550724637694 t_2,36_ + 0.08695652173913038 t_2,37_ + 0.14492753623188426 t_2,38_ + 0.2028985507246377 t_2,39_ + 0.26086956521739113 t_2,40_ + 0.318840579710145 t_2,41_ + 0.37681159420289845 t_2,42_ + 0.43478260869565233 t_2,43_ + 0.49275362318840576 t_2,44_ + 0.5507246376811592 t_2,45_ + 0.6086956521739131 t_2,46_ + 0.6666666666666665 t_2,47_ + 0.7246376811594204 t_2,48_ + 0.7826086956521738 t_2,49_ + 0.8405797101449277 t_2,50_ + 0.8985507246376812 t_2,51_ + 0.9565217391304346 t_2,52_ + 1.0144927536231885 t_2,53_ + 1.072463768115942 t_2,54_ + 1.1304347826086958 t_2,55_ + 1.1884057971014492 t_2,56_ + 1.246376811594203 t_2,57_ + 1.3043478260869565 t_2,58_ + 1.36231884057971 t_2,59_ + 1.4202898550724639 t_2,60_ + 1.4782608695652173 t_2,61_ + 1.5362318840579712 t_2,62_ + 1.5942028985507246 t_2,63_ + 1.652173913043478 t_2,64_ + 1.710144927536232 t_2,65_ + 1.7681159420289854 t_2,66_ + 1.8260869565217392 t_2,67_ + 1.8840579710144927 t_2,68_ + 1.9420289855072466 t_2,69_ + 2 t_2,70_ - 1 x_2_ = 0
Bounds
x_1_ <= 2
x_2_ <= 2
t_1,1_ >= 0
t_2,1_ >= 0
t_1,2_ >= 0
t_2,2_ >= 0
t_1,3_ >= 0
t_2,3_ >= 0
t_1,4_ >= 0
t_2,4_ >= 0
t_1,5_ >= 0
t_2,5_ >= 0
t_1,6_ >= 0
t_2,6_ >= 0
t_1,7_ >= 0
t_2,7_ >= 0
t_1,8_ >= 0
t_2,8_ >= 0
t_1,9_ >= 0
t_2,9_ >= 0
t_1,10_ >= 0
t_2,10_ >= 0
t_1,11_ >= 0
t_2,11_ >= 0
t_1,12_ >= 0
t_2,12_ >= 0
t_1,13_ >= 0
t_2,13_ >= 0
t_1,14_ >= 0
t_2,14_ >= 0
t_1,15_ >= 0
t_2,15_ >= 0
t_1,16_ >= 0
t_2,16_ >= 0
t_1,17_ >= 0
t_2,17_ >= 0
t_1,18_ >= 0
t_2,18_ >= 0
t_1,19_ >= 0
t_2,19_ >= 0
t_1,20_ >= 0
t_2,20_ >= 0
t_1,21_ >= 0
t_2,21_ >= 0
t_1,22_ >= 0
t_2,22_ >= 0
t_1,23_ >= 0
t_2,23_ >= 0
t_1,24_ >= 0
t_2,24_ >= 0
t_1,25_ >= 0
t_2,25_ >= 0
t_1,26_ >= 0
t_2,26_ >= 0
t_1,27_ >= 0
t_2,27_ >= 0
t_1,28_ >= 0
t_2,28_ >= 0
t_1,29_ >= 0
t_2,29_ >= 0
t_1,30_ >= 0
t_2,30_ >= 0
t_1,31_ >= 0
t_2,31_ >= 0
t_1,32_ >= 0
t_2,32_ >= 0
t_1,33_ >= 0
t_2,33_ >= 0
t_1,34_ >= 0
t_2,34_ >= 0
t_1,35_ >= 0
t_2,35_ >= 0
t_1,36_ >= 0
t_2,36_ >= 0
t_1,37_ >= 0
t_2,37_ >= 0
t_1,38_ >= 0
t_2,38_ >= 0
t_1,39_ >= 0
t_2,39_ >= 0
t_1,40_ >= 0
t_2,40_ >= 0
t_1,41_ >= 0
t_2,41_ >= 0
t_1,42_ >= 0
t_2,42_ >= 0
t_1,43_ >= 0
t_2,43_ >= 0
t_1,44_ >= 0
t_2,44_ >= 0
t_1,45_ >= 0
t_2,45_ >= 0
t_1,46_ >= 0
t_2,46_ >= 0
t_1,47_ >= 0
t_2,47_ >= 0
t_1,48_ >= 0
t_2,48_ >= 0
t_1,49_ >= 0
t_2,49_ >= 0
t_1,50_ >= 0
t_2,50_ >= 0
t_1,51_ >= 0
t_2,51_ >= 0
t_1,52_ >= 0
t_2,52_ >= 0
t_1,53_ >= 0
t_2,53_ >= 0
t_1,54_ >= 0
t_2,54_ >= 0
t_1,55_ >= 0
t_2,55_ >= 0
t_1,56_ >= 0
t_2,56_ >= 0
t_1,57_ >= 0
t_2,57_ >= 0
t_1,58_ >= 0
t_2,58_ >= 0
t_1,59_ >= 0
t_2,59_ >= 0
t_1,60_ >= 0
t_2,60_ >= 0
t_1,61_ >= 0
t_2,61_ >= 0
t_1,62_ >= 0
t_2,62_ >= 0
t_1,63_ >= 0
t_2,63_ >= 0
t_1,64_ >= 0
t_2,64_ >= 0
t_1,65_ >= 0
t_2,65_ >= 0
t_1,66_ >= 0
t_2,66_ >= 0
t_1,67_ >= 0
t_2,67_ >= 0
t_1,68_ >= 0
t_2,68_ >= 0
t_1,69_ >= 0
t_2,69_ >= 0
t_1,70_ >= 0
t_2,70_ >= 0
x_1_ >= -2
x_2_ >= -2
Binary
y_1,1_
y_2,1_
y_1,2_
y_2,2_
y_1,3_
y_2,3_
y_1,4_
y_2,4_
y_1,5_
y_2,5_
y_1,6_
y_2,6_
y_1,7_
y_2,7_
y_1,8_
y_2,8_
y_1,9_
y_2,9_
y_1,10_
y_2,10_
y_1,11_
y_2,11_
y_1,12_
y_2,12_
y_1,13_
y_2,13_
y_1,14_
y_2,14_
y_1,15_
y_2,15_
y_1,16_
y_2,16_
y_1,17_
y_2,17_
y_1,18_
y_2,18_
y_1,19_
y_2,19_
y_1,20_
y_2,20_
y_1,21_
y_2,21_
y_1,22_
y_2,22_
y_1,23_
y_2,23_
y_1,24_
y_2,24_
y_1,25_
y_2,25_
y_1,26_
y_2,26_
y_1,27_
y_2,27_
y_1,28_
y_2,28_
y_1,29_
y_2,29_
y_1,30_
y_2,30_
y_1,31_
y_2,31_
y_1,32_
y_2,32_
y_1,33_
y_2,33_
y_1,34_
y_2,34_
y_1,35_
y_2,35_
y_1,36_
y_2,36_
y_1,37_
y_2,37_
y_1,38_
y_2,38_
y_1,39_
y_2,39_
y_1,40_
y_2,40_
y_1,41_
y_2,41_
y_1,42_
y_2,42_
y_1,43_
y_2,43_
y_1,44_
y_2,44_
y_1,45_
y_2,45_
y_1,46_
y_2,46_
y_1,47_
y_2,47_
y_1,48_
y_2,48_
y_1,49_
y_2,49_
y_1,50_
y_2,50_
y_1,51_
y_2,51_
y_1,52_
y_2,52_
y_1,53_
y_2,53_
y_1,54_
y_2,54_
y_1,55_
y_2,55_
y_1,56_
y_2,56_
y_1,57_
y_2,57_
y_1,58_
y_2,58_
y_1,59_
y_2,59_
y_1,60_
y_2,60_
y_1,61_
y_2,61_
y_1,62_
y_2,62_
y_1,63_
y_2,63_
y_1,64_
y_2,64_
y_1,65_
y_2,65_
y_1,66_
y_2,66_
y_1,67_
y_2,67_
y_1,68_
y_2,68_
y_1,69_
y_2,69_
End
